n = 23;
k = 5;
maxsize = 23;
nML = 5;
nCL = 5;
deg = [4, 4, 3, 3, 4, 4, 1, 4, 4, 3, 4, 3, 4, 4, 4, 4, 4, 1, 3, 3, 1, 3, 4];
ML = array2d(1..5, 1..2, [23, 20, 11, 18, 4, 12, 14, 21, 19, 2]);
CL = array2d(1..5, 1..2, [7, 5, 1, 3, 6, 22, 15, 10, 17, 13]);
A = array2d(1..23, 1..23, [ 0, 0, 1, 0, 0, 0, 0, 1, 1, 0, 0, 0, 0, 0, 0, 0, 0, 0, 0, 0, 0, 1, 0, 0, 0, 0, 1, 0, 1, 0, 0, 0, 0, 1, 0, 0, 0, 0, 0, 0, 0, 0, 0, 0, 0, 1, 1, 0, 0, 0, 0, 0, 0, 0, 0, 0, 0, 0, 0, 0, 0, 0, 1, 0, 1, 0, 0, 0, 0, 0, 1, 0, 0, 0, 0, 0, 0, 0, 1, 1, 0, 0, 0, 0, 0, 0, 0, 0, 0, 0, 0, 0, 0, 0, 0, 0, 0, 0, 0, 0, 0, 0, 1, 0, 0, 0, 1, 1, 1, 0, 0, 0, 0, 0, 0, 0, 1, 0, 0, 0, 0, 0, 1, 0, 0, 0, 0, 0, 0, 0, 0, 0, 1, 0, 1, 0, 0, 0, 0, 0, 0, 0, 0, 0, 0, 0, 0, 0, 0, 0, 1, 0, 0, 0, 0, 0, 0, 0, 0, 0, 0, 1, 0, 0, 0, 0, 1, 0, 0, 0, 0, 0, 0, 0, 0, 1, 1, 0, 0, 0, 0, 0, 0, 0, 1, 0, 0, 0, 0, 0, 0, 0, 0, 1, 0, 0, 0, 0, 1, 0, 0, 0, 0, 0, 0, 1, 0, 0, 0, 0, 1, 0, 0, 0, 0, 1, 0, 0, 0, 1, 0, 0, 0, 0, 0, 0, 0, 0, 0, 0, 0, 1, 0, 1, 1, 0, 0, 0, 0, 0, 0, 0, 0, 0, 0, 1, 0, 0, 0, 0, 0, 0, 0, 0, 0, 0, 0, 0, 0, 0, 0, 0, 0, 0, 0, 0, 1, 0, 0, 0, 0, 1, 0, 0, 0, 1, 0, 0, 0, 0, 0, 0, 1, 0, 0, 1, 0, 0, 0, 0, 0, 0, 0, 0, 0, 0, 1, 0, 1, 0, 0, 0, 0, 0, 0, 0, 0, 0, 0, 0, 1, 0, 0, 0, 0, 0, 0, 1, 1, 0, 1, 0, 0, 0, 0, 0, 1, 0, 0, 1, 1, 0, 0, 0, 0, 0, 0, 1, 0, 0, 0, 0, 0, 0, 0, 0, 0, 0, 0, 1, 0, 0, 1, 0, 0, 1, 0, 0, 0, 1, 0, 0, 0, 0, 0, 0, 0, 0, 0, 0, 1, 0, 1, 0, 0, 0, 0, 0, 0, 0, 0, 0, 0, 0, 0, 0, 0, 1, 0, 0, 1, 0, 0, 0, 0, 0, 1, 0, 0, 0, 0, 0, 0, 0, 0, 0, 0, 0, 0, 0, 0, 0, 0, 0, 0, 0, 1, 0, 0, 0, 0, 0, 0, 0, 0, 1, 0, 1, 0, 0, 0, 0, 0, 0, 0, 0, 0, 0, 0, 0, 0, 0, 1, 0, 0, 0, 0, 0, 0, 0, 1, 0, 0, 1, 0, 0, 0, 0, 0, 0, 0, 0, 0, 0, 0, 0, 0, 0, 0, 0, 0, 0, 1, 0, 0, 0, 0, 0, 0, 0, 0, 0, 0, 1, 0, 0, 0, 0, 0, 0, 0, 1, 0, 0, 0, 0, 1, 0, 0, 0, 0, 0, 0, 0, 0, 0, 0, 1, 0, 0, 0, 0, 0, 0, 0, 0, 0, 1, 1, 0, 0, 0, 1, 0, 0, 0, 0, 0, 0 ]);
W = array2d(1..23, 1..23, [ -7, -8, 9, 7, 7, 7, -7, 0, 7, 10, 8, 2, -8, 10, 2, 4, 3, 2, 2, 2, 2, 10, 4, -6, -8, 8, 9, 9, -2, 9, 4, -6, 8, 2, -4, 1, 5, -5, -9, 8, 3, -8, 1, -7, -1, -5, -8, 5, -4, 0, -1, -2, -8, 2, -1, 2, 3, -6, -5, 3, 2, -4, 2, 1, 5, 10, 4, 8, -10, -6, -3, 5, -4, 10, 9, 6, 8, -2, 4, -6, 8, 4, 0, 7, 6, 2, 3, 10, -8, -7, -9, 1, -2, 7, 2, 7, 5, 2, -9, 3, 0, 0, -7, 0, 2, 9, -10, -7, 1, -1, -1, 9, -5, -3, -8, 4, 0, 6, 0, 5, -3, 0, -1, -7, -4, 0, 8, -9, 10, 2, -8, -4, -8, -2, 9, 10, 9, -4, -9, 2, -2, 4, 3, -3, 8, 9, -7, -6, 1, -8, -6, 1, 3, -6, 7, -5, -2, -9, 4, 10, 8, -7, -3, 6, -10, 5, 3, -2, -7, 0, 2, -7, -6, 2, -1, 3, -10, 7, 4, 4, -1, 7, -9, -1, 9, 0, 1, 10, 4, 9, 7, 4, -3, -6, -9, -8, 8, 6, -3, 4, 7, -1, -6, -9, -2, -9, 5, 1, 3, -3, 0, 4, -1, 5, -9, -3, -1, 0, -6, -10, 3, -7, 9, -1, -8, 0, 10, 8, 7, -2, 0, 4, 3, 10, 7, -3, -9, -10, -7, 4, -1, -5, 7, -5, -6, -5, -7, -4, -7, -9, 5, 6, 0, -9, 0, -6, 6, -5, -2, -10, -3, 3, 9, 2, 8, -3, 6, -3, 8, 10, 8, 6, -9, 4, 3, 5, 4, -5, 10, 1, -3, 0, -10, 4, 10, 4, 1, -6, 10, -9, 5, 5, -5, 0, 4, 10, -8, 7, 3, -2, -4, -4, -4, 0, 7, 10, 6, -7, 8, -2, -3, 2, -5, 0, -5, 5, 8, 7, -2, 5, -3, 2, 5, 10, -7, 8, 8, 1, -4, 1, 8, 4, 4, -9, 6, 8, 2, 3, -6, -4, 2, 7, -7, -5, -1, -5, 9, -9, -5, 5, -6, 5, 7, -9, 1, 6, 2, 2, 2, 5, 5, 7, -3, -9, 8, 3, -10, -4, -8, 1, 2, 10, 1, 9, 6, 7, 10, 5, 4, -4, -9, -10, -4, -8, 8, -9, -9, 10, 10, -1, 9, 4, -4, -5, 0, 9, -9, 3, -7, -10, -7, 4, -8, 8, -2, 9, 2, 10, -3, -3, -4, -10, -1, 5, 9, -5, -10, -5, 8, 7, 8, 9, 1, -9, 2, -5, -7, -2, -4, -5, 10, -9, -2, 9, 3, 4, 4, 8, 1, 0, 7, -9, 8, 6, -6, -4, -7, 4, 10, -5, 4, 1, -8, -2, 1, -5, 7, -6, 5, -9, 8, 1, 1, 5, -9, -10, 7, -6, -10, -3, -6, -4, 3, 6, -9, -10, -4, 8, -5, -8, 7, 0, -1, -2, -4, -10, -8, 4, 4, -6, 7, -7, -7, -9, 5, -8, -4, 9, -3, 3, 3, 9, -3, -7, 7, 5, -4, -2, 0, -5, 4, 10, -2, 6, 7, 8, 0, -2, -1, -2, 1, 2, 7, -7, -8, 7, 10, -4, 6 ]);